(declare-const a Real)
(declare-const b Real)
(declare-const c Real)
(assert (= (* a b c) 1))
(assert (> a 0))
(assert (> b 0))
(assert (> c 0))
(assert (not (<= (+ (* -1 (pow (+ (* (/ 5370763 4) (pow a 2)) (* (/ 7017355 4) (pow b 2))) -1) (pow (+ (* (/ 5370763 4) (pow a 3)) (* (/ 7017355 4) (pow b 3))) 2)) (* -3538944 (pow a (pow 3 -1)) (pow b (/ 11 3))) (* -1769472 (pow a (/ 10 3)) (pow b (/ 2 3))) (* 1982581 b (pow a 3)) (* 6344821 a (pow b 3)) (* (/ 156087 2) (pow a 2) (pow b 2))) 0)))
(check-sat)
(get-model)
(exit)